instances/shortest_path/discrete/shortest_path_7_1.lp
\ Model nohadani_7_1
\ LP format - for model browsing. Use MPS format to capture full model detail.
\ Signature: 0x917f322750627386
Minimize
  71.69379331573968 y[0,1] + 43.46262762420146 y[0,3]
   + 10.295630140987 y[0,4] + 64.19501538281614 y[0,5]
   + 77.02596964660685 y[0,6] + 71.69379331573968 y[1,0]
   + 24.04163056034261 y[1,2] + 51.97114584074513 y[1,3]
   + 71.34423592694787 y[1,4] + 10.04987562112089 y[1,6]
   + 24.04163056034261 y[2,1] + 70.60453243241541 y[2,3]
   + 65.30696746902278 y[2,5] + 15.26433752247375 y[2,6]
   + 43.46262762420146 y[3,0] + 51.97114584074513 y[3,1]
   + 70.60453243241541 y[3,2] + 35.90264614203248 y[3,4]
   + 61.26989472816156 y[3,6] + 10.295630140987 y[4,0]
   + 71.34423592694787 y[4,1] + 35.90264614203248 y[4,3]
   + 73.68174807915459 y[4,5] + 77.80102827083971 y[4,6]
   + 64.19501538281614 y[5,0] + 65.30696746902278 y[5,2]
   + 73.68174807915459 y[5,4] + 76.55063683601855 y[5,6]
   + 77.02596964660685 y[6,0] + 10.04987562112089 y[6,1]
   + 15.26433752247375 y[6,2] + 61.26989472816156 y[6,3]
   + 77.80102827083971 y[6,4] + 76.55063683601855 y[6,5] + x[0,1] + x[0,3]
   + x[0,4] + x[0,5] + x[0,6] + x[1,0] + x[1,2] + x[1,3] + x[1,4] + x[1,6]
   + x[2,1] + x[2,3] + x[2,5] + x[2,6] + x[3,0] + x[3,1] + x[3,2] + x[3,4]
   + x[3,6] + x[4,0] + x[4,1] + x[4,3] + x[4,5] + x[4,6] + x[5,0] + x[5,2]
   + x[5,4] + x[5,6] + x[6,0] + x[6,1] + x[6,2] + x[6,3] + x[6,4] + x[6,5]
   + 7.169379331573968 r[0,1] + 4.346262762420146 r[0,3]
   + 1.0295630140987 r[0,4] + 6.419501538281614 r[0,5]
   + 7.702596964660685 r[0,6] + 7.169379331573968 r[1,0]
   + 2.404163056034262 r[1,2] + 5.197114584074513 r[1,3]
   + 7.134423592694787 r[1,4] + 1.004987562112089 r[1,6]
   + 2.404163056034262 r[2,1] + 7.060453243241541 r[2,3]
   + 6.530696746902279 r[2,5] + 1.526433752247375 r[2,6]
   + 4.346262762420146 r[3,0] + 5.197114584074513 r[3,1]
   + 7.060453243241541 r[3,2] + 3.590264614203248 r[3,4]
   + 6.126989472816156 r[3,6] + 1.0295630140987 r[4,0]
   + 7.134423592694787 r[4,1] + 3.590264614203248 r[4,3]
   + 7.368174807915459 r[4,5] + 7.780102827083971 r[4,6]
   + 6.419501538281614 r[5,0] + 6.530696746902279 r[5,2]
   + 7.368174807915459 r[5,4] + 7.655063683601856 r[5,6]
   + 7.702596964660685 r[6,0] + 1.004987562112089 r[6,1]
   + 1.526433752247375 r[6,2] + 6.126989472816156 r[6,3]
   + 7.780102827083971 r[6,4] + 7.655063683601856 r[6,5]
Subject To
 flow_cons_inner_nodes[0]: - y[0,1] - y[0,3] - y[0,4] - y[0,5] - y[0,6]
   + y[1,0] + y[3,0] + y[4,0] + y[5,0] + y[6,0] = 0
 flow_cons_inner_nodes[1]: y[0,1] - y[1,0] - y[1,2] - y[1,3] - y[1,4]
   - y[1,6] + y[2,1] + y[3,1] + y[4,1] + y[6,1] = 0
 flow_cons_inner_nodes[2]: y[1,2] - y[2,1] - y[2,3] - y[2,5] - y[2,6]
   + y[3,2] + y[5,2] + y[6,2] = 0
 flow_cons_inner_nodes[4]: y[0,4] + y[1,4] + y[3,4] - y[4,0] - y[4,1]
   - y[4,3] - y[4,5] - y[4,6] + y[5,4] + y[6,4] = 0
 flow_cons_inner_nodes[6]: y[0,6] + y[1,6] + y[2,6] + y[3,6] + y[4,6]
   + y[5,6] - y[6,0] - y[6,1] - y[6,2] - y[6,3] - y[6,4] - y[6,5] = 0
 flow_cons_source: - y[0,3] - y[1,3] - y[2,3] + y[3,0] + y[3,1] + y[3,2]
   + y[3,4] + y[3,6] - y[4,3] - y[6,3] = 1
 flow_cons_target: y[0,5] + y[2,5] + y[4,5] - y[5,0] - y[5,2] - y[5,4]
   - y[5,6] + y[6,5] = 1
 primal_lower: 1.97130361788485 x[0,1] + 3.241764494550033 x[0,3]
   + 2.282305731215201 x[0,4] + 4.629014638000085 x[0,5]
   + 1.781611799472923 x[0,6] + 3.360246088592641 x[1,0]
   + 4.245619303039028 x[1,2] + 3.959106082348392 x[1,3]
   + 1.535714483464054 x[1,4] + 3.210466274479524 x[1,6]
   + 3.597050413121897 x[2,1] + 1.967969607408768 x[2,3]
   + 0.2643579018906753 x[2,5] + 4.306165593449357 x[2,6]
   + 4.103236103058398 x[3,0] + 2.904657985378409 x[3,1]
   + 4.015738151386286 x[3,2] + 4.504281801783075 x[3,4]
   + 1.673214581783231 x[3,6] + 1.690053605129213 x[4,0]
   + 3.444232642536192 x[4,1] + 3.749614932195392 x[4,3]
   + 1.013590648026747 x[4,5] + 3.35432227524156 x[4,6]
   + 4.586674810852364 x[5,0] + 3.306478844710938 x[5,2]
   + 2.096167522725068 x[5,4] + 3.020353984390686 x[5,6]
   + 3.342494003956078 x[6,0] + 1.049085179543583 x[6,1]
   + 4.334809826991315 x[6,2] + 4.145331186880608 x[6,3]
   + 0.9363321501111688 x[6,4] + 3.091078066952771 x[6,5] + 82 u[0,1]
   + 87 u[0,3] + 45 u[0,4] + 2 u[0,5] + 43 u[0,6] + 24 u[1,0] + 8 u[1,2]
   + 10 u[1,3] + 28 u[1,4] + 81 u[1,6] + 86 u[2,1] + 82 u[2,3] + 87 u[2,5]
   + 35 u[2,6] + 23 u[3,0] + 71 u[3,1] + 52 u[3,2] + 83 u[3,4] + 4 u[3,6]
   + 81 u[4,0] + 60 u[4,1] + 62 u[4,3] + 27 u[4,5] + 69 u[4,6] + 47 u[5,0]
   + 91 u[5,2] + 29 u[5,4] + 86 u[5,6] + 20 u[6,0] + 18 u[6,1] + 12 u[6,2]
   + 50 u[6,3] + 94 u[6,4] + 96 u[6,5] <= 161
 mccormick1[0,1]: - u[0,1] + r[0,1] <= 0
 mccormick1[0,3]: - u[0,3] + r[0,3] <= 0
 mccormick1[0,4]: - u[0,4] + r[0,4] <= 0
 mccormick1[0,5]: - u[0,5] + r[0,5] <= 0
 mccormick1[0,6]: - u[0,6] + r[0,6] <= 0
 mccormick1[1,0]: - u[1,0] + r[1,0] <= 0
 mccormick1[1,2]: - u[1,2] + r[1,2] <= 0
 mccormick1[1,3]: - u[1,3] + r[1,3] <= 0
 mccormick1[1,4]: - u[1,4] + r[1,4] <= 0
 mccormick1[1,6]: - u[1,6] + r[1,6] <= 0
 mccormick1[2,1]: - u[2,1] + r[2,1] <= 0
 mccormick1[2,3]: - u[2,3] + r[2,3] <= 0
 mccormick1[2,5]: - u[2,5] + r[2,5] <= 0
 mccormick1[2,6]: - u[2,6] + r[2,6] <= 0
 mccormick1[3,0]: - u[3,0] + r[3,0] <= 0
 mccormick1[3,1]: - u[3,1] + r[3,1] <= 0
 mccormick1[3,2]: - u[3,2] + r[3,2] <= 0
 mccormick1[3,4]: - u[3,4] + r[3,4] <= 0
 mccormick1[3,6]: - u[3,6] + r[3,6] <= 0
 mccormick1[4,0]: - u[4,0] + r[4,0] <= 0
 mccormick1[4,1]: - u[4,1] + r[4,1] <= 0
 mccormick1[4,3]: - u[4,3] + r[4,3] <= 0
 mccormick1[4,5]: - u[4,5] + r[4,5] <= 0
 mccormick1[4,6]: - u[4,6] + r[4,6] <= 0
 mccormick1[5,0]: - u[5,0] + r[5,0] <= 0
 mccormick1[5,2]: - u[5,2] + r[5,2] <= 0
 mccormick1[5,4]: - u[5,4] + r[5,4] <= 0
 mccormick1[5,6]: - u[5,6] + r[5,6] <= 0
 mccormick1[6,0]: - u[6,0] + r[6,0] <= 0
 mccormick1[6,1]: - u[6,1] + r[6,1] <= 0
 mccormick1[6,2]: - u[6,2] + r[6,2] <= 0
 mccormick1[6,3]: - u[6,3] + r[6,3] <= 0
 mccormick1[6,4]: - u[6,4] + r[6,4] <= 0
 mccormick1[6,5]: - u[6,5] + r[6,5] <= 0
 mccormick2[0,1]: - y[0,1] + r[0,1] <= 0
 mccormick2[0,3]: - y[0,3] + r[0,3] <= 0
 mccormick2[0,4]: - y[0,4] + r[0,4] <= 0
 mccormick2[0,5]: - y[0,5] + r[0,5] <= 0
 mccormick2[0,6]: - y[0,6] + r[0,6] <= 0
 mccormick2[1,0]: - y[1,0] + r[1,0] <= 0
 mccormick2[1,2]: - y[1,2] + r[1,2] <= 0
 mccormick2[1,3]: - y[1,3] + r[1,3] <= 0
 mccormick2[1,4]: - y[1,4] + r[1,4] <= 0
 mccormick2[1,6]: - y[1,6] + r[1,6] <= 0
 mccormick2[2,1]: - y[2,1] + r[2,1] <= 0
 mccormick2[2,3]: - y[2,3] + r[2,3] <= 0
 mccormick2[2,5]: - y[2,5] + r[2,5] <= 0
 mccormick2[2,6]: - y[2,6] + r[2,6] <= 0
 mccormick2[3,0]: - y[3,0] + r[3,0] <= 0
 mccormick2[3,1]: - y[3,1] + r[3,1] <= 0
 mccormick2[3,2]: - y[3,2] + r[3,2] <= 0
 mccormick2[3,4]: - y[3,4] + r[3,4] <= 0
 mccormick2[3,6]: - y[3,6] + r[3,6] <= 0
 mccormick2[4,0]: - y[4,0] + r[4,0] <= 0
 mccormick2[4,1]: - y[4,1] + r[4,1] <= 0
 mccormick2[4,3]: - y[4,3] + r[4,3] <= 0
 mccormick2[4,5]: - y[4,5] + r[4,5] <= 0
 mccormick2[4,6]: - y[4,6] + r[4,6] <= 0
 mccormick2[5,0]: - y[5,0] + r[5,0] <= 0
 mccormick2[5,2]: - y[5,2] + r[5,2] <= 0
 mccormick2[5,4]: - y[5,4] + r[5,4] <= 0
 mccormick2[5,6]: - y[5,6] + r[5,6] <= 0
 mccormick2[6,0]: - y[6,0] + r[6,0] <= 0
 mccormick2[6,1]: - y[6,1] + r[6,1] <= 0
 mccormick2[6,2]: - y[6,2] + r[6,2] <= 0
 mccormick2[6,3]: - y[6,3] + r[6,3] <= 0
 mccormick2[6,4]: - y[6,4] + r[6,4] <= 0
 mccormick2[6,5]: - y[6,5] + r[6,5] <= 0
 mccormick3[0,1]: - y[0,1] - u[0,1] + r[0,1] >= -1
 mccormick3[0,3]: - y[0,3] - u[0,3] + r[0,3] >= -1
 mccormick3[0,4]: - y[0,4] - u[0,4] + r[0,4] >= -1
 mccormick3[0,5]: - y[0,5] - u[0,5] + r[0,5] >= -1
 mccormick3[0,6]: - y[0,6] - u[0,6] + r[0,6] >= -1
 mccormick3[1,0]: - y[1,0] - u[1,0] + r[1,0] >= -1
 mccormick3[1,2]: - y[1,2] - u[1,2] + r[1,2] >= -1
 mccormick3[1,3]: - y[1,3] - u[1,3] + r[1,3] >= -1
 mccormick3[1,4]: - y[1,4] - u[1,4] + r[1,4] >= -1
 mccormick3[1,6]: - y[1,6] - u[1,6] + r[1,6] >= -1
 mccormick3[2,1]: - y[2,1] - u[2,1] + r[2,1] >= -1
 mccormick3[2,3]: - y[2,3] - u[2,3] + r[2,3] >= -1
 mccormick3[2,5]: - y[2,5] - u[2,5] + r[2,5] >= -1
 mccormick3[2,6]: - y[2,6] - u[2,6] + r[2,6] >= -1
 mccormick3[3,0]: - y[3,0] - u[3,0] + r[3,0] >= -1
 mccormick3[3,1]: - y[3,1] - u[3,1] + r[3,1] >= -1
 mccormick3[3,2]: - y[3,2] - u[3,2] + r[3,2] >= -1
 mccormick3[3,4]: - y[3,4] - u[3,4] + r[3,4] >= -1
 mccormick3[3,6]: - y[3,6] - u[3,6] + r[3,6] >= -1
 mccormick3[4,0]: - y[4,0] - u[4,0] + r[4,0] >= -1
 mccormick3[4,1]: - y[4,1] - u[4,1] + r[4,1] >= -1
 mccormick3[4,3]: - y[4,3] - u[4,3] + r[4,3] >= -1
 mccormick3[4,5]: - y[4,5] - u[4,5] + r[4,5] >= -1
 mccormick3[4,6]: - y[4,6] - u[4,6] + r[4,6] >= -1
 mccormick3[5,0]: - y[5,0] - u[5,0] + r[5,0] >= -1
 mccormick3[5,2]: - y[5,2] - u[5,2] + r[5,2] >= -1
 mccormick3[5,4]: - y[5,4] - u[5,4] + r[5,4] >= -1
 mccormick3[5,6]: - y[5,6] - u[5,6] + r[5,6] >= -1
 mccormick3[6,0]: - y[6,0] - u[6,0] + r[6,0] >= -1
 mccormick3[6,1]: - y[6,1] - u[6,1] + r[6,1] >= -1
 mccormick3[6,2]: - y[6,2] - u[6,2] + r[6,2] >= -1
 mccormick3[6,3]: - y[6,3] - u[6,3] + r[6,3] >= -1
 mccormick3[6,4]: - y[6,4] - u[6,4] + r[6,4] >= -1
 mccormick3[6,5]: - y[6,5] - u[6,5] + r[6,5] >= -1
Bounds
Binaries
 y[0,1] y[0,3] y[0,4] y[0,5] y[0,6] y[1,0] y[1,2] y[1,3] y[1,4] y[1,6]
 y[2,1] y[2,3] y[2,5] y[2,6] y[3,0] y[3,1] y[3,2] y[3,4] y[3,6] y[4,0]
 y[4,1] y[4,3] y[4,5] y[4,6] y[5,0] y[5,2] y[5,4] y[5,6] y[6,0] y[6,1]
 y[6,2] y[6,3] y[6,4] y[6,5] x[0,1] x[0,3] x[0,4] x[0,5] x[0,6] x[1,0]
 x[1,2] x[1,3] x[1,4] x[1,6] x[2,1] x[2,3] x[2,5] x[2,6] x[3,0] x[3,1]
 x[3,2] x[3,4] x[3,6] x[4,0] x[4,1] x[4,3] x[4,5] x[4,6] x[5,0] x[5,2]
 x[5,4] x[5,6] x[6,0] x[6,1] x[6,2] x[6,3] x[6,4] x[6,5] u[0,1] u[0,3]
 u[0,4] u[0,5] u[0,6] u[1,0] u[1,2] u[1,3] u[1,4] u[1,6] u[2,1] u[2,3]
 u[2,5] u[2,6] u[3,0] u[3,1] u[3,2] u[3,4] u[3,6] u[4,0] u[4,1] u[4,3]
 u[4,5] u[4,6] u[5,0] u[5,2] u[5,4] u[5,6] u[6,0] u[6,1] u[6,2] u[6,3]
 u[6,4] u[6,5] r[0,1] r[0,3] r[0,4] r[0,5] r[0,6] r[1,0] r[1,2] r[1,3]
 r[1,4] r[1,6] r[2,1] r[2,3] r[2,5] r[2,6] r[3,0] r[3,1] r[3,2] r[3,4]
 r[3,6] r[4,0] r[4,1] r[4,3] r[4,5] r[4,6] r[5,0] r[5,2] r[5,4] r[5,6]
 r[6,0] r[6,1] r[6,2] r[6,3] r[6,4] r[6,5]
End
