instances/shortest_path/discrete/shortest_path_7_1.kp
7147
161

[1.9713036178848495 3.2417644945500332 2.2823057312152013 4.629014638000085 1.7816117994729235 3.3602460885926413 4.245619303039028 3.9591060823483923 1.535714483464054 3.210466274479524 3.5970504131218974 1.9679696074087676 0.26435790189067526 4.306165593449357 4.103236103058398 2.9046579853784094 4.015738151386286 4.504281801783075 1.6732145817832307 1.6900536051292132 3.4442326425361918 3.7496149321953918 1.013590648026747 3.35432227524156 4.586674810852364 3.3064788447109383 2.096167522725068 3.020353984390686 3.3424940039560775 1.0490851795435827 4.334809826991315 4.1453311868806075 0.9363321501111688 3.091078066952771]

[82 87 45 2 43 24 8 10 28 81 86 82 87 35 23 71 52 83 4 81 60 62 27 69 47 91 29 86 20 18 12 50 94 96]
